c User generated cnf file
p cnf 12 65
11 3 -7 0 
-10 4 6 0 
-3 9 12 0 
-10 11 6 0 
5 11 -5 0 
9 -5 6 0 
-3 8 10 0 
6 10 -10 0 
-11 1 8 0 
9 6 -3 0 
-10 11 1 0 
-6 3 7 0 
11 -7 9 0 
2 -1 10 0 
-5 9 4 0 
12 3 -2 0 
-8 1 2 0 
3 -6 6 0 
4 -5 7 0 
7 1 -9 0 
1 -8 6 0 
5 -8 2 0 
4 4 -3 0 
8 -2 10 0 
4 -4 5 0 
8 11 -12 0 
4 9 -1 0 
10 6 -11 0 
3 -12 8 0 
-3 6 2 0 
7 6 -4 0 
-6 7 6 0 
11 -5 5 0 
5 10 -10 0 
-4 11 1 0 
-9 4 7 0 
6 -12 8 0 
-9 6 4 0 
3 -3 11 0 
-4 12 12 0 
-3 10 5 0 
10 10 -12 0 
-2 7 10 0 
-5 8 4 0 
5 -4 7 0 
12 2 -9 0 
12 -5 6 0 
4 8 -10 0 
-12 7 1 0 
11 -2 4 0 
7 9 -5 0 
12 -7 5 0 
8 -6 6 0 
-3 8 12 0 
9 -12 3 0 
2 5 -1 0 
2 8 -6 0 
-7 10 3 0 
-5 2 9 0 
11 12 -6 0 
-7 9 6 0 
5 8 -12 0 
3 -9 12 0 
11 -10 2 0 
-12 9 4 0 
